40 340
1 2 7 8 9 10 13 18 19 20 21 24 25 26 27 29 32 33 35 36 38 39
0 2 4 8 11 12 13 20 21 22 23 27 28 32 36 37 39
0 1 5 7 11 14 16 17 18 19 22 25 26 28 30 31 32 34 37 38
4 7 8 9 11 14 15 17 21 22 24 32 35 36 37 39
1 3 12 15 16 17 18 21 23 26 28 30 31 33 34 35
2 12 15 18 19 20 23 27 30 32 34 35 39
7 8 10 12 16 17 18 20 25 27 28 29 31 33 37 38 39
0 2 3 6 11 16 17 19 21 25 26 27 30 31 33 36 37 39
0 1 3 6 10 11 13 14 16 17 18 20 21 22 23 24 25 26 27 33 34 35 37 38 39
0 3 11 12 19 20 24 29 30 34 36 38
0 6 8 11 19 20 21 23 25 27 29 32 33 34 35 36 37
1 2 3 7 8 9 10 15 17 21 22 23 27 30 33 35 37 39
1 4 5 6 9 13 15 16 25 28 30 31 33 35
0 1 8 12 20 22 23 26 29 31
2 3 8 17 25 27 31 34 36 37
3 4 5 11 12 16 17 20 22 23 24 25 27 28 29 30 35 36 37 39
2 4 6 7 8 12 15 19 20 22 23 28 29 31 32 33 37 39
2 3 4 6 7 8 11 14 15 20 21 22 24 25 28 29 30 34 36 37
0 2 4 5 6 8 21 22 25 27 33 37 38
0 2 5 7 9 10 16 20 22 23 24 28 30 31 33 34 36 39
0 1 5 6 8 9 10 13 15 16 17 19 21 23 24 31 33 36 39
0 1 3 4 7 8 10 11 17 18 20 23 24 25 31 33 34
1 2 3 8 11 13 15 16 17 18 19 24 32 33 39
1 4 5 8 10 11 13 15 16 19 20 21 25 26 31 33 34 35 36 39
0 3 8 9 15 17 19 20 21 22 28 29 30 31 32 33 39
0 2 6 7 8 10 12 14 15 17 18 21 23 26 28 33 34 35 37
0 2 4 7 8 13 23 25 28 29 30 33 35 37 38
0 1 5 6 7 8 10 11 14 15 18 29 30 33 37
1 2 4 6 12 15 16 17 19 24 25 26 29 32 35 36 38 39
0 6 9 10 13 15 16 17 24 26 27 28 35
2 4 5 7 9 11 12 15 17 19 24 26 27 32 33 34 36 38 39
2 4 6 7 12 13 14 16 19 20 21 23 24 32 33 37
0 1 2 3 5 10 16 22 24 28 30 31 34 37 38
0 4 6 7 8 10 11 12 16 18 19 20 21 22 23 24 25 26 27 30 31 35 36 37 38
2 4 5 8 9 10 14 17 19 21 23 25 30 32 37
0 3 4 5 8 10 11 12 15 23 25 26 28 29 33 36 39
0 1 3 7 9 10 14 15 17 19 20 23 28 30 33 35 37 38 39
1 2 3 6 7 8 10 11 14 15 16 17 18 25 26 27 31 32 33 34 36
0 2 6 8 9 18 26 28 30 32 33 36
0 1 3 5 6 7 8 11 15 16 19 20 22 23 24 28 30 35 36
